\Problem name: 

Minimize
OBJROW: 152 item0_in_bin1 + 489 item1_in_bin1 + 2178 item2_in_bin1 + 2518 item3_in_bin1 + 3212 item4_in_bin1 + 3270 item5_in_bin1 + 3410 item6_in_bin1 + 4979 item7_in_bin1 + 5984 item8_in_bin1 + 7183 item9_in_bin1
 + 7740 item10_in_bin1 + 7862 item11_in_bin1 + 8519 item12_in_bin1 + 8798 item13_in_bin1 + 9948 item14_in_bin1
Subject To
constr(0):  item0_in_bin0 >= 0
constr(1):  item1_in_bin0 >= 0
constr(2):  item2_in_bin0 >= 0
constr(3):  item3_in_bin0 >= 0
constr(4):  item4_in_bin0 >= 0
constr(5):  item5_in_bin0 >= 0
constr(6):  item6_in_bin0 >= 0
constr(7):  item7_in_bin0 >= 0
constr(8):  item8_in_bin0 >= 0
constr(9):  item9_in_bin0 >= 0
constr(10):  item10_in_bin0 >= 0
constr(11):  item11_in_bin0 >= 0
constr(12):  item12_in_bin0 >= 0
constr(13):  item13_in_bin0 >= 0
constr(14):  item14_in_bin0 >= 0
constr(15):  item0_in_bin1 >= 0
constr(16):  item1_in_bin1 >= 0
constr(17):  item2_in_bin1 >= 0
constr(18):  item3_in_bin1 >= 0
constr(19):  item4_in_bin1 >= 0
constr(20):  item5_in_bin1 >= 0
constr(21):  item6_in_bin1 >= 0
constr(22):  item7_in_bin1 >= 0
constr(23):  item8_in_bin1 >= 0
constr(24):  item9_in_bin1 >= 0
constr(25):  item10_in_bin1 >= 0
constr(26):  item11_in_bin1 >= 0
constr(27):  item12_in_bin1 >= 0
constr(28):  item13_in_bin1 >= 0
constr(29):  item14_in_bin1 >= 0
constr(30):  item0_in_bin0 + item0_in_bin1 = 1
constr(31):  item1_in_bin0 + item1_in_bin1 = 1
constr(32):  item2_in_bin0 + item2_in_bin1 = 1
constr(33):  item3_in_bin0 + item3_in_bin1 = 1
constr(34):  item4_in_bin0 + item4_in_bin1 = 1
constr(35):  item5_in_bin0 + item5_in_bin1 = 1
constr(36):  item6_in_bin0 + item6_in_bin1 = 1
constr(37):  item7_in_bin0 + item7_in_bin1 = 1
constr(38):  item8_in_bin0 + item8_in_bin1 = 1
constr(39):  item9_in_bin0 + item9_in_bin1 = 1
constr(40):  item10_in_bin0 + item10_in_bin1 = 1
constr(41):  item11_in_bin0 + item11_in_bin1 = 1
constr(42):  item12_in_bin0 + item12_in_bin1 = 1
constr(43):  item13_in_bin0 + item13_in_bin1 = 1
constr(44):  item14_in_bin0 + item14_in_bin1 = 1
constr(45):  -152 item0_in_bin0 + 152 item0_in_bin1 -489 item1_in_bin0 + 489 item1_in_bin1 -2178 item2_in_bin0 + 2178 item2_in_bin1 -2518 item3_in_bin0 + 2518 item3_in_bin1 -3212 item4_in_bin0 + 3212 item4_in_bin1
 -3270 item5_in_bin0 + 3270 item5_in_bin1 -3410 item6_in_bin0 + 3410 item6_in_bin1 -4979 item7_in_bin0 + 4979 item7_in_bin1 -5984 item8_in_bin0 + 5984 item8_in_bin1 -7183 item9_in_bin0 + 7183 item9_in_bin1
 -7740 item10_in_bin0 + 7740 item10_in_bin1 -7862 item11_in_bin0 + 7862 item11_in_bin1 -8519 item12_in_bin0 + 8519 item12_in_bin1 -8798 item13_in_bin0 + 8798 item13_in_bin1 -9948 item14_in_bin0 + 9948 item14_in_bin1
 >= -0
Bounds
Integers
item0_in_bin0 item0_in_bin1 item1_in_bin0 item1_in_bin1 item2_in_bin0 item2_in_bin1 item3_in_bin0 item3_in_bin1 item4_in_bin0 item4_in_bin1 
item5_in_bin0 item5_in_bin1 item6_in_bin0 item6_in_bin1 item7_in_bin0 item7_in_bin1 item8_in_bin0 item8_in_bin1 item9_in_bin0 item9_in_bin1 
item10_in_bin0 item10_in_bin1 item11_in_bin0 item11_in_bin1 item12_in_bin0 item12_in_bin1 item13_in_bin0 item13_in_bin1 item14_in_bin0 item14_in_bin1 
End
